Route #1: 26 58 10 31 38 65 11
Route #2: 53 66 59 14 35 8 46
Route #3: 67 7 19 54 13 27 52 34 4
Route #4: 45 29 5 47 36 69 71 60 70 20 37 15 57
Route #5: 30 48 21 61 22 62 28 74 2
Route #6: 68 73 43 42 64 41 56 23 49 24 3 44
Route #7: 12 72 39 9 25 55 18 50 32 40
Route #8: 17 51 16 63 1 33 6 75
Cost 772